735997
735997
735997
735103
720701
720701
720701
720701
720701
720701
707105
707105
707105
706208
696244
688719
688719
680561
668043
668043
668043
665518
663277
661047
651558
649799
649799
643003
643003
643003
641286
639412
630136
630136
621689
621689
621689
621689
621689
621689
621689
621689
620834
620834
620834
620834
613370
613370
613352
606975
606975
606323
604057
604057
602099
602099
601309
595593
595593
595593
595593
595593
590155
590155
589347
587416
582273
582273
582273
582001
582001
579432
579432
574434
574434
574434
574434
574434
574434
568218
568218
568218
568218
562742
562742
562742
562473
562473
562342
560871
560871
559337
559337
559337
559120
558157
558157
558157
545059
545059
